&CONTROL
    calculation='relax',
    restart_mode='from_scratch',
    pseudo_dir='.',
    prefix='graphene.1',
    nstep=500,
/
&SYSTEM
    ibrav=0,
    celldm(1)=1.889726,
    nat=16,
    ntyp=1,
    ecutwfc=32.00,
    ecutrho=128.00,
    occupations='fixed',
    nspin=1,
/
&ELECTRONS
    mixing_mode='plain',
    mixing_beta=0.7,
    electron_maxstep=200,
/
&IONS
/
CELL_PARAMETERS alat
4.9200   0.0000   0.000000
0.0000   8.5220   0.000000
0.0000   0.0000   16.000000
K_POINTS automatic
1 1 1 0 0 0
ATOMIC_SPECIES
C 12.0110 C.UPF
ATOMIC_POSITIONS angstrom
C 1.230000 0.000000 0.000000 1 1 1
C 0.000000 0.710141 0.000000 1 1 1
C 0.000000 2.130423 0.000000 1 1 1
C 1.230000 2.840563 0.000000 1 1 1
C 1.230000 4.261000 0.000000 1 1 1
C 0.000000 4.971141 0.000000 1 1 1
C 0.000000 6.391423 0.000000 1 1 1
C 1.230000 7.101563 0.000000 1 1 1
C 3.690000 0.000000 0.000000 1 1 1
C 2.460000 0.710141 0.000000 1 1 1
C 2.460000 2.130423 0.000000 1 1 1
C 3.690000 2.840563 0.000000 1 1 1
C 3.690000 4.261000 0.000000 1 1 1
C 2.460000 4.971141 0.000000 1 1 1
C 2.460000 6.391423 0.000000 1 1 1
C 3.690000 7.101563 0.000000 1 1 1
