&CONTROL
    calculation='relax',
    restart_mode='from_scratch',
    pseudo_dir='.',
    prefix='graphene2.3',
    nstep=500,
/
&SYSTEM
    ibrav=0,
    celldm(1)=1.889726,
    nat=63,
    ntyp=2,
    ecutwfc=32.00,
    ecutrho=128.00,
    occupations='fixed',
    nspin=1,
/
&ELECTRONS
    mixing_mode='plain',
    mixing_beta=0.7,
    electron_maxstep=200,
/
&IONS
/
CELL_PARAMETERS alat
9.8400   0.0000   0.000000
0.0000   17.0440   0.000000
0.0000   0.0000   18.500000
K_POINTS automatic
1 1 1 0 0 0
ATOMIC_SPECIES
C 12.0110 C.UPF
S 32.0650 S.UPF
ATOMIC_POSITIONS angstrom
C 1.230000 -0.100000 0.000000 1 1 1
C 0.000000 0.710141 0.000000 1 1 1
C 0.000000 2.130423 0.000000 1 1 1
C 1.230000 2.840563 -1.000000 1 1 1
C 1.230000 4.261000 0.000000 1 1 1
C 0.000000 4.971141 0.000000 1 1 1
C 0.000000 6.391423 0.000000 1 1 1
C 1.230000 7.101563 0.000000 1 1 1
C 1.230000 8.522000 0.000000 1 1 1
C 0.000000 9.232141 0.000000 1 1 1
C 0.000000 10.652423 0.000000 1 1 1
C 1.230000 11.362563 0.000000 1 1 1
C 1.230000 12.783000 0.000000 1 1 1
C 0.000000 13.493141 0.000000 1 1 1
C 0.000000 14.913423 0.000000 1 1 1
C 1.230000 15.623563 0.000000 1 1 1
C 3.690000 0.000000 0.000000 1 1 1
C 2.460000 0.710141 0.000000 1 1 1
C 2.460000 2.130423 0.000000 1 1 1
C 3.690000 2.840563 0.000000 1 1 1
C 3.690000 4.261000 0.000000 1 1 1
C 2.460000 4.971141 0.000000 1 1 1
C 2.460000 6.391423 0.000000 1 1 1
C 3.690000 7.101563 0.000000 1 1 1
C 2.460000 9.232141 0.000000 1 1 1
C 2.460000 10.652423 0.000000 1 1 1
C 3.690000 11.362563 0.000000 1 1 1
C 3.690000 12.783000 0.000000 1 1 1
C 2.460000 13.493141 0.000000 1 1 1
C 3.690000 15.623563 0.000000 1 1 1
C 6.150000 0.000000 0.000000 1 1 1
C 4.920000 0.710141 0.000000 1 1 1
C 4.920000 2.130423 0.000000 1 1 1
C 6.150000 2.840563 0.000000 1 1 1
C 6.150000 4.261000 0.000000 1 1 1
C 4.920000 4.971141 0.000000 1 1 1
C 4.920000 6.391423 0.000000 1 1 1
C 6.150000 7.101563 0.000000 1 1 1
C 6.150000 8.522000 0.000000 1 1 1
C 4.920000 9.232141 0.000000 1 1 1
C 4.920000 10.652423 0.000000 1 1 1
C 6.150000 11.362563 0.000000 1 1 1
C 6.150000 12.783000 0.000000 1 1 1
C 4.920000 13.493141 0.000000 1 1 1
C 4.920000 14.913423 0.000000 1 1 1
C 6.150000 15.623563 0.000000 1 1 1
C 8.610000 0.000000 0.000000 1 1 1
C 7.380000 0.710141 0.000000 1 1 1
C 7.380000 2.130423 0.000000 1 1 1
C 8.610000 2.840563 0.000000 1 1 1
C 8.610000 4.261000 0.000000 1 1 1
C 7.380000 4.971141 0.000000 1 1 1
C 7.380000 6.391423 0.000000 1 1 1
C 8.610000 7.101563 0.000000 1 1 1
C 8.610000 8.522000 0.000000 1 1 1
C 7.380000 9.232141 0.000000 1 1 1
C 7.380000 10.652423 0.000000 1 1 1
C 8.610000 11.362563 0.000000 1 1 1
C 8.610000 12.783000 0.000000 1 1 1
C 7.380000 13.493141 0.000000 1 1 1
C 7.380000 14.913423 0.000000 1 1 1
C 8.610000 15.623563 0.000000 1 1 1
S 3.690000 8.522000 1.500000 1 1 1
