&CONTROL
    calculation='relax',
    restart_mode='from_scratch',
    pseudo_dir='.',
    prefix='pw',
    nstep=500,
/
&SYSTEM
    ibrav=8,
    celldm(1)=23.243630,
    celldm(2)=1.732114,
    celldm(3)=1.060336,
    nat=122,
    ntyp=3,
    ecutwfc=32.00,
    ecutrho=128.00,
    occupations='smearing',
    smearing='gaussian',
    degauss=0.02,
    nspin=1,
/
&ELECTRONS
    mixing_mode='plain',
    mixing_beta=0.7,
    electron_maxstep=200,
/
&IONS
/
K_POINTS automatic
4 4 4 0 0 0
ATOMIC_SPECIES
C 12.0110 C.paw.UPF
H 1.0078 H.paw.UPF
N 14.0070 N.UPF
ATOMIC_POSITIONS angstrom
C 1.230000 0.000000 0.000000 1 1 1
C 0.000000 0.710141 0.000000 1 1 1
C 0.000000 2.130423 0.000000 1 1 1
C 1.230000 2.840563 0.000000 1 1 1
C 1.230000 4.261000 0.000000 1 1 1
C 0.000000 4.971141 0.000000 1 1 1
C 0.000000 6.391423 0.000000 1 1 1
C 1.230000 7.101563 0.000000 1 1 1
C 1.230000 8.522000 0.000000 1 1 1
C 0.000000 9.232141 0.000000 1 1 1
C 0.000000 10.652423 0.000000 1 1 1
C 1.230000 11.362563 0.000000 1 1 1
C 1.230000 12.783000 0.000000 1 1 1
C 0.000000 13.493141 0.000000 1 1 1
C 0.000000 14.913423 0.000000 1 1 1
C 1.230000 15.623563 0.000000 1 1 1
C 1.230000 17.044000 0.000000 1 1 1
C 0.000000 17.754141 0.000000 1 1 1
C 0.000000 19.174423 0.000000 1 1 1
C 1.230000 19.884563 0.000000 1 1 1
C 3.690000 0.000000 0.000000 1 1 1
C 2.460000 0.710141 0.000000 1 1 1
C 2.460000 2.130423 0.000000 1 1 1
C 3.690000 2.840563 0.000000 1 1 1
C 3.690000 4.261000 0.000000 1 1 1
C 2.460000 4.971141 0.000000 1 1 1
C 2.460000 6.391423 0.000000 1 1 1
C 3.690000 7.101563 0.000000 1 1 1
C 3.690000 8.522000 0.000000 1 1 1
C 2.460000 9.232141 0.000000 1 1 1
C 2.460000 10.652423 0.000000 1 1 1
C 3.690000 11.362563 0.000000 1 1 1
C 3.690000 12.783000 0.000000 1 1 1
C 2.460000 13.493141 0.000000 1 1 1
C 2.460000 14.913423 0.000000 1 1 1
C 3.690000 15.623563 0.000000 1 1 1
C 3.690000 17.044000 0.000000 1 1 1
C 2.460000 17.754141 0.000000 1 1 1
C 2.460000 19.174423 0.000000 1 1 1
C 3.690000 19.884563 0.000000 1 1 1
C 6.150000 0.000000 0.000000 1 1 1
C 4.920000 0.710141 0.000000 1 1 1
C 4.920000 2.130423 0.000000 1 1 1
C 6.150000 2.840563 0.000000 1 1 1
C 6.150000 4.261000 0.000000 1 1 1
C 4.920000 4.971141 0.000000 1 1 1
C 4.920000 6.391423 0.000000 1 1 1
C 6.150000 7.101563 0.000000 1 1 1
C 6.150000 8.522000 0.000000 1 1 1
C 4.920000 9.232141 0.000000 1 1 1
C 4.920000 10.652423 0.000000 1 1 1
C 6.150000 11.362563 0.000000 1 1 1
C 6.150000 12.783000 0.000000 1 1 1
C 4.920000 13.493141 0.000000 1 1 1
C 4.920000 14.913423 0.000000 1 1 1
C 6.150000 15.623563 0.000000 1 1 1
C 6.150000 17.044000 0.000000 1 1 1
C 4.920000 17.754141 0.000000 1 1 1
C 4.920000 19.174423 0.000000 1 1 1
C 6.150000 19.884563 0.000000 1 1 1
C 8.610000 0.000000 0.000000 1 1 1
C 7.380000 0.710141 0.000000 1 1 1
C 7.380000 2.130423 0.000000 1 1 1
C 8.610000 2.840563 0.000000 1 1 1
C 8.610000 4.261000 0.000000 1 1 1
C 7.380000 4.971141 0.000000 1 1 1
C 7.380000 6.391423 0.000000 1 1 1
C 8.610000 7.101563 0.000000 1 1 1
C 8.610000 8.522000 0.000000 1 1 1
C 7.380000 9.232141 0.000000 1 1 1
C 7.380000 10.652423 0.000000 1 1 1
C 8.610000 11.362563 0.000000 1 1 1
C 8.610000 12.783000 0.000000 1 1 1
C 7.380000 13.493141 0.000000 1 1 1
C 7.380000 14.913423 0.000000 1 1 1
C 8.610000 15.623563 0.000000 1 1 1
C 8.610000 17.044000 0.000000 1 1 1
C 7.380000 17.754141 0.000000 1 1 1
C 7.380000 19.174423 0.000000 1 1 1
C 8.610000 19.884563 0.000000 1 1 1
C 11.070000 0.000000 0.000000 1 1 1
C 9.840000 0.710141 0.000000 1 1 1
C 9.840000 2.130423 0.000000 1 1 1
C 11.070000 2.840563 0.000000 1 1 1
C 11.070000 4.261000 0.000000 1 1 1
C 9.840000 4.971141 0.000000 1 1 1
C 9.840000 6.391423 0.000000 1 1 1
C 11.070000 7.101563 0.000000 1 1 1
C 11.070000 8.522000 0.000000 1 1 1
C 9.840000 9.232141 0.000000 1 1 1
C 9.840000 10.652423 0.000000 1 1 1
C 11.070000 11.362563 0.000000 1 1 1
C 11.070000 12.783000 0.000000 1 1 1
C 9.840000 13.493141 0.000000 1 1 1
C 9.840000 14.913423 0.000000 1 1 1
C 11.070000 15.623563 0.000000 1 1 1
C 11.070000 17.044000 0.000000 1 1 1
C 9.840000 17.754141 0.000000 1 1 1
C 9.840000 19.174423 0.000000 1 1 1
C 11.070000 19.884563 0.000000 1 1 1
C 6.151921 9.957737 2.009979 1 1 1
C 7.382346 9.208354 2.003790 1 1 1
C 7.381555 7.834124 2.004854 1 1 1
C 6.149909 7.086406 2.011874 1 1 1
C 4.919845 7.836143 2.005689 1 1 1
C 4.920537 9.209757 2.004861 1 1 1
C 6.152309 11.379747 2.026050 1 1 1
C 7.360416 12.132607 2.033965 1 1 1
C 4.943501 12.132063 2.040999 1 1 1
C 6.148583 5.664534 2.029077 1 1 1
C 7.355747 4.910213 2.037389 1 1 1
C 4.939003 4.913306 2.042132 1 1 1
N 8.359951 12.749277 2.025669 1 1 1
N 3.942383 12.745584 2.040117 1 1 1
N 8.354644 4.292578 2.028976 1 1 1
N 3.937875 4.299703 2.038657 1 1 1
H 8.329452 9.745914 2.000000 1 1 1
H 8.327728 7.295144 2.002026 1 1 1
H 3.972625 7.298434 2.002598 1 1 1
H 3.974188 9.748686 2.000983 1 1 1
H 6.200000 4.500000 -1.000000 1 1 1
H 7.200000 4.500000 -1.000000 1 1 1
