&CONTROL
    calculation='relax',
    restart_mode='from_scratch',
    pseudo_dir='.',
    prefix='tcnq',
    nstep=500,
/
&SYSTEM
    ibrav=0,
    celldm(1)=1.889726,
    nat=20,
    ntyp=3,
    ecutwfc=32.00,
    ecutrho=128.00,
    occupations='fixed',
    nspin=1,
/
&ELECTRONS
    mixing_mode='plain',
    mixing_beta=0.7,
    electron_maxstep=200,
/
&IONS
/
CELL_PARAMETERS alat
27.8148   0.0000   0.000000
0.0000   24.5262   0.000000
0.0000   0.0000   28.918878
K_POINTS automatic
1 1 1 0 0 0
ATOMIC_SPECIES
C 12.0110 C.UPF
N 14.0070 N.UPF
H 1.0078 H.UPF
ATOMIC_POSITIONS angstrom
C 7.028799 12.140563 13.112965 1 1 1
C 8.146410 11.277675 13.399199 1 1 1
C 9.054277 10.938076 12.425054 1 1 1
C 8.925708 11.431461 11.077417 1 1 1
C 7.814933 12.304066 10.794679 1 1 1
C 6.907292 12.643380 11.768265 1 1 1
C 6.079591 12.478567 14.116523 1 1 1
C 6.184611 11.987650 15.448572 1 1 1
C 4.966031 13.323223 13.844566 1 1 1
C 9.855831 11.067579 10.065251 1 1 1
C 10.956942 10.204861 10.329047 1 1 1
C 9.737317 11.543057 8.728287 1 1 1
N 6.283873 11.591746 16.549857 1 1 1
N 4.057486 14.030937 13.615802 1 1 1
N 11.872265 9.504748 10.555683 1 1 1
N 9.641779 11.949953 7.630979 1 1 1
H 8.269126 10.887761 14.408606 1 1 1
H 9.887967 10.282200 12.671099 1 1 1
H 7.696088 12.699473 9.786763 1 1 1
H 6.077280 13.304669 11.523697 1 1 1
