&CONTROL
    calculation='relax',
    restart_mode='from_scratch',
    pseudo_dir='.',
    prefix='tcnq',
    nstep=500,
/
&SYSTEM
    ibrav=0,
    celldm(1)=1.8897259886,
    nat=18,
    ntyp=3,
    ecutwfc=32.00,
    ecutrho=128.00,
    occupations='fixed',
    nspin=1,
/
&ELECTRONS
    mixing_mode='plain',
    mixing_beta=0.7,
    electron_maxstep=200,
/
&IONS
/
CELL_PARAMETERS alat
24.5697   0.0000   0.000000
0.0000   24.1199   0.000000
0.0000   0.0000   27.114457
K_POINTS automatic
1 1 1 0 0 0
ATOMIC_SPECIES
C 12.0110 C.UPF
O 15.9990 O.UPF
H 1.0078 H.UPF
ATOMIC_POSITIONS angstrom
C 1.462952 3.333099 4.531158 1 1 1
C 2.173872 3.932899 3.279541 1 1 1
O 2.646987 2.951445 2.455468 1 1 1
C 2.508706 2.852706 5.534350 1 1 1
H 0.812280 2.498329 4.230888 1 1 1
O 2.331025 5.127931 3.085462 1 1 1
H 3.137913 2.080537 5.068996 1 1 1
H 3.144063 3.692069 5.852840 1 1 1
H 2.008827 2.417022 6.409520 1 1 1
C 3.461311 3.373087 1.300525 1 1 1
C 4.348265 2.176569 0.839719 1 1 1
O 5.381951 2.595888 0.050812 1 1 1
C 2.546261 3.803457 0.157254 1 1 1
H 4.096254 4.214981 1.614728 1 1 1
O 4.117305 1.007991 1.106864 1 1 1
H 3.153149 4.114055 -0.704937 1 1 1
H 1.931014 4.655108 0.475388 1 1 1
H 1.893311 2.971154 -0.142891 1 1 1
